
Gurobi 9.1.2 (linux64) logging started Tue Feb  8 19:35:06 2022

Changed value of parameter LogFile to lemke_square_gurobi-fixed_s=6.log
   Prev:   Default: 
Changed value of parameter MIPFocus to 1
   Prev: 0  Min: 0  Max: 3  Default: 0
Changed value of parameter Threads to 16
   Prev: 0  Min: 0  Max: 1024  Default: 0
Warning: variable name "X[(7, 4),(7, 3)]" has a space
Warning: constraint name "flow-constr-t0-v(3, 0)" has a space
Warning: to let Gurobi read it back, use rlp format
Gurobi Optimizer version 9.1.2 build v9.1.2rc0 (linux64)
Thread count: 16 physical cores, 32 logical processors, using up to 16 threads
Optimize a model with 3669 rows, 3264 columns and 12162 nonzeros
Model fingerprint: 0x327cd427
Variable types: 384 continuous, 2880 integer (2880 binary)
Coefficient statistics:
  Matrix range     [1e+00, 3e+04]
  Objective range  [2e-01, 2e-01]
  Bounds range     [1e+00, 2e+04]
  RHS range        [1e+00, 3e+04]
Presolve removed 138 rows and 156 columns
Presolve time: 0.12s
Presolved: 3531 rows, 3108 columns, 23355 nonzeros
Variable types: 378 continuous, 2730 integer (2730 binary)

Root relaxation: objective 6.300000e+01, 316 iterations, 0.02 seconds

    Nodes    |    Current Node    |     Objective Bounds      |     Work
 Expl Unexpl |  Obj  Depth IntInf | Incumbent    BestBd   Gap | It/Node Time

     0     0   63.00000    0   99          -   63.00000      -     -    0s
H    0     0                    6255.0833333   63.00000  99.0%     -    1s
H    0     0                    6251.7500000   63.00000  99.0%     -    1s
H    0     0                     715.0833333   63.00000  91.2%     -    1s
     0     0   63.00000    0  193  715.08333   63.00000  91.2%     -    1s
H    0     0                     481.4583333   63.00000  86.9%     -    1s
     0     0   63.00000    0  206  481.45833   63.00000  86.9%     -    1s
H    0     0                     480.1250000   63.00000  86.9%     -    1s
H    0     0                     457.5000000   63.00000  86.2%     -    2s
H    0     0                     453.4791667   63.00000  86.1%     -    2s
     0     0   63.00000    0   83  453.47917   63.00000  86.1%     -    2s
H    0     0                     449.4166666   63.00000  86.0%     -    2s
H    0     0                     430.8750000   63.00000  85.4%     -    2s
H    0     0                     422.0000000   63.00000  85.1%     -    2s
     0     0   63.00000    0   90  422.00000   63.00000  85.1%     -    2s
H    0     0                     241.1666667   63.00000  73.9%     -    2s
H    0     0                     240.0000000   63.00000  73.7%     -    2s
H    0     0                     208.8333333   63.00000  69.8%     -    2s
     0     0   63.00000    0   68  208.83333   63.00000  69.8%     -    3s
H    0     0                     207.3333333   63.00000  69.6%     -    3s
     0     0   63.00000    0   80  207.33333   63.00000  69.6%     -    3s
H    0     0                     206.3333333   63.00000  69.5%     -    3s
H    0     0                     204.3333333   63.00000  69.2%     -    3s
     0     0   63.00000    0  107  204.33333   63.00000  69.2%     -    3s
     0     0   63.00000    0  111  204.33333   63.00000  69.2%     -    3s
H    0     0                     202.3333333   63.00000  68.9%     -    3s
     0     0   63.00000    0   79  202.33333   63.00000  68.9%     -    3s
H    0     0                     169.6666667   63.00000  62.9%     -    4s
H    0     0                     149.3333333   63.00000  57.8%     -    5s
H    0     0                     149.0000000   63.00000  57.7%     -    5s
H    0     2                     148.4761905   63.00000  57.6%     -    6s
     0     2   63.00000    0   79  148.47619   63.00000  57.6%     -    6s
H    1     4                     147.6666667   63.00000  57.3%   732    6s
H   31    48                     147.5000000   63.00000  57.3%  40.5    7s
H   33    48                     147.0000000   63.00000  57.1%  38.8    7s
H   34    48                     146.6666667   63.00000  57.0%  37.9    7s
H   35    48                     145.8333333   63.00000  56.8%  36.8    7s
H   79    96                     135.0000000   63.00000  53.3%  18.8   13s
H   80    96                     134.0833333   63.00000  53.0%  18.6   13s
H   84    96                     132.5000000   63.00000  52.5%  17.9   13s
H  127   144                     132.0833333   63.00000  52.3%  14.0   16s
H  129   144                     131.8333333   63.00000  52.2%  13.9   16s
H  130   144                     130.3750000   63.00000  51.7%  13.8   16s
H  160   407                     130.2083333   63.00000  51.6%  11.9   17s
H  228   407                     129.8750000   63.00000  51.5%   9.0   17s
H  330   407                     129.7500000   63.00000  51.4%   7.4   17s
H  416   988                     128.9166667   63.00000  51.1%  12.3   18s
H  467   988                     128.3333333   63.00000  50.9%  11.1   18s
H  505   988                     125.6666667   63.00000  49.9%  10.4   18s
H 1017  1004                     123.5000000   63.00000  49.0%   6.3   22s
H 1032  1004                     121.6250000   63.00000  48.2%   6.2   22s
H 1033  1143                     120.2916667   63.00000  47.6%   6.2   25s
H 1110  1143                     119.6250000   63.00000  47.3%   6.0   25s
H 1114  1143                     119.2083333   63.00000  47.2%   6.0   25s
H 1226  1449                     119.0833333   63.00000  47.1%   5.7   29s
H 1262  1449                     118.7500000   63.00000  46.9%   5.6   29s
H 1288  1449                     118.5416667   63.00000  46.9%   5.5   29s
H 1484  1449                     117.3750000   63.00000  46.3%   5.2   29s
  1503  3475   63.00000   89  122  117.37500   63.00000  46.3%   5.1   34s
H 1600  3475                     116.0833333   63.00000  45.7%   5.0   34s
H 1796  3475                     115.7500000   63.00000  45.6%   4.7   34s
H 2288  3475                     115.4166667   63.00000  45.4%   4.2   34s
H 2909  3475                     115.1666667   63.00000  45.3%   3.8   34s
  3590  3486   69.33333  186  110  115.16667   63.00000  45.3%   3.6   38s
H 3591  3486                     114.0000000   63.00000  44.7%   3.6   38s
H 3601  3486                     113.9166667   63.00000  44.7%   3.6   38s
H 3608  3726                     113.8333333   63.00000  44.7%   3.6   42s
H 3706  3726                     113.6666667   63.00000  44.6%   3.5   42s
  3855  5064   69.33333  188  112  113.66667   63.00000  44.6%   3.5   47s
H 3900  5064                     113.5000000   63.00000  44.5%   3.5   47s
  5309  5640   63.00000   64  128  113.50000   63.00000  44.5%   3.2   52s
H 5486  5640                     113.4999999   63.00000  44.5%   3.2   52s
H 5925  5656                     113.4999998   63.00000  44.5%   3.1   61s
  5941  7475   63.00000   66  128  113.50000   63.00000  44.5%   3.1   65s
H 7678  7475                     113.4999997   63.00000  44.5%   3.0   65s
H 8034  8381                     113.4999996   63.00000  44.5%   3.0   71s
  8972  8385   66.00000  334  231  113.50000   63.00000  44.5%   3.0   75s

Cutting planes:
  Cover: 35
  Implied bound: 91
  Clique: 41
  MIR: 42
  Flow cover: 75
  RLT: 1
  Relax-and-lift: 54

Explored 8979 nodes (73345 simplex iterations) in 79.63 seconds
Thread count was 16 (of 32 available processors)

Solution count 10: 113.5 113.5 113.5 ... 115.417

Solve interrupted
Best objective 1.134999995792e+02, best bound 6.300000000000e+01, gap 44.4934%
